
Gurobi 10.0.1 (mac64[arm]) logging started Fri Sep 22 17:10:34 2023

Set parameter LogFile to value "results/scenario_capacity/CAP_h/CAP_h_50/mip_log.txt"
Gurobi Optimizer version 10.0.1 build v10.0.1rc0 (mac64[arm])

CPU model: Apple M1
Thread count: 8 physical cores, 8 logical processors, using up to 8 threads

Optimize a model with 6896 rows, 25172 columns and 98648 nonzeros
Model fingerprint: 0x432aeb21
Model has 35912 general constraints
Variable types: 4 continuous, 25168 integer (1632 binary)
Coefficient statistics:
  Matrix range     [6e-02, 3e+05]
  Objective range  [9e-02, 2e+05]
  Bounds range     [1e+00, 2e+07]
  RHS range        [4e+03, 2e+04]
  GenCon rhs range [1e+00, 1e+00]
  GenCon coe range [1e+00, 1e+00]

MIP start from previous solve produced solution with objective 5.45249e+07 (1.40s)
MIP start from previous solve produced solution with objective 5.31278e+07 (1.90s)
MIP start from previous solve produced solution with objective 5.26318e+07 (1.99s)
MIP start from previous solve produced solution with objective 5.23148e+07 (3.28s)
MIP start from previous solve produced solution with objective 5.21118e+07 (3.73s)
Loaded MIP start from previous solve with objective 5.21118e+07
Processed MIP start in 4.45 seconds (6.30 work units)

Presolve removed 5286 rows and 19425 columns
Presolve time: 1.31s
Presolved: 1610 rows, 5747 columns, 22997 nonzeros
Presolved model has 4 SOS constraint(s)
Variable types: 0 continuous, 5747 integer (34 binary)

Root simplex log...

Iteration    Objective       Primal Inf.    Dual Inf.      Time
       0    2.5246653e+06   2.413780e+05   0.000000e+00      6s
    6266    4.9288009e+07   0.000000e+00   0.000000e+00      6s

Root relaxation: objective 4.928801e+07, 6266 iterations, 0.08 seconds (0.11 work units)

    Nodes    |    Current Node    |     Objective Bounds      |     Work
 Expl Unexpl |  Obj  Depth IntInf | Incumbent    BestBd   Gap | It/Node Time

     0     0 4.9288e+07    0  409 5.2112e+07 4.9288e+07  5.42%     -    5s
     0     0 4.9353e+07    0 1052 5.2112e+07 4.9353e+07  5.29%     -    6s
     0     0 4.9427e+07    0 1007 5.2112e+07 4.9427e+07  5.15%     -    6s
     0     0 4.9427e+07    0 1015 5.2112e+07 4.9427e+07  5.15%     -    6s
     0     0 4.9427e+07    0 1018 5.2112e+07 4.9427e+07  5.15%     -    6s
H    0     0                    5.193604e+07 4.9677e+07  4.35%     -    6s
     0     0 4.9743e+07    0 1192 5.1936e+07 4.9743e+07  4.22%     -    6s
     0     0 4.9900e+07    0 1138 5.1936e+07 4.9900e+07  3.92%     -    6s
     0     0 4.9922e+07    0 1137 5.1936e+07 4.9922e+07  3.88%     -    6s
     0     0 4.9922e+07    0 1053 5.1936e+07 4.9922e+07  3.88%     -    6s
     0     0 5.0005e+07    0 1140 5.1936e+07 5.0005e+07  3.72%     -    6s
     0     0 5.0066e+07    0 1127 5.1936e+07 5.0066e+07  3.60%     -    6s
     0     2 5.0066e+07    0 1126 5.1936e+07 5.0066e+07  3.60%     -    7s
H   36    36                    5.191584e+07 5.0155e+07  3.39%   791    7s
H   75    65                    5.190177e+07 5.0155e+07  3.36%   558    8s
H   76    65                    5.189768e+07 5.0155e+07  3.36%   552    8s
H   79    65                    5.188746e+07 5.0155e+07  3.34%   538    8s
H   81    65                    5.177984e+07 5.0155e+07  3.14%   529    8s
H  118    87                    5.175221e+07 5.0155e+07  3.09%   428    8s
H  261   168                    5.173906e+07 5.0213e+07  2.95%   264    8s
H  279   168                    5.163994e+07 5.0213e+07  2.76%   253    8s
H 1021   774                    5.162301e+07 5.0350e+07  2.47%   101    9s
H 1022   737                    5.159756e+07 5.0350e+07  2.42%   101    9s
H 1023   482                    5.130033e+07 5.0350e+07  1.85%   101    9s
H 1033   482                    5.130030e+07 5.0350e+07  1.85%   101    9s
  1458   722 5.1300e+07  141 1125 5.1300e+07 5.0432e+07  1.69%  84.2   10s
H 1460   686                    5.124168e+07 5.0432e+07  1.58%  84.1   10s
H 1471   659                    5.124122e+07 5.0432e+07  1.58%  83.4   13s
H 1556   655                    5.119301e+07 5.0738e+07  0.89%   113   14s
  1757   642     cutoff   29      5.1193e+07 5.0893e+07  0.59%   128   15s
* 1762   610              37    5.119300e+07 5.0893e+07  0.59%   129   15s

Cutting planes:
  Gomory: 2
  Implied bound: 448
  Projected implied bound: 13
  MIR: 50
  Flow cover: 29
  Inf proof: 3
  Relax-and-lift: 13

Explored 4411 nodes (348673 simplex iterations) in 17.72 seconds (26.69 work units)
Thread count was 8 (of 8 available processors)

Solution count 10: 5.1193e+07 5.1193e+07 5.12412e+07 ... 5.17391e+07

Optimal solution found (tolerance 1.00e-04)
Warning: max bound violation (2.0184e-06) exceeds tolerance
Best objective 5.119299861400e+07, best bound 5.119299719807e+07, gap 0.0000%

Gurobi 10.0.1 (mac64[arm]) logging started Fri Sep 22 17:13:16 2023

Set parameter LogFile to value "results/scenario_capacity/CAP_h/CAP_h_50/mip_log.txt"
Gurobi Optimizer version 10.0.1 build v10.0.1rc0 (mac64[arm])

CPU model: Apple M1
Thread count: 8 physical cores, 8 logical processors, using up to 8 threads

Optimize a model with 6896 rows, 25172 columns and 98648 nonzeros
Model fingerprint: 0x432aeb21
Model has 35912 general constraints
Variable types: 4 continuous, 25168 integer (1632 binary)
Coefficient statistics:
  Matrix range     [6e-02, 3e+05]
  Objective range  [9e-02, 2e+05]
  Bounds range     [1e+00, 2e+07]
  RHS range        [4e+03, 2e+04]
  GenCon rhs range [1e+00, 1e+00]
  GenCon coe range [1e+00, 1e+00]

MIP start from previous solve produced solution with objective 5.45249e+07 (3.32s)
MIP start from previous solve produced solution with objective 5.31278e+07 (4.30s)
MIP start from previous solve produced solution with objective 5.26318e+07 (4.46s)
Processing MIP start from previous solve: 163 nodes explored in subMIP, total elapsed time 5s
MIP start from previous solve produced solution with objective 5.23148e+07 (6.91s)
MIP start from previous solve produced solution with objective 5.21118e+07 (7.63s)
Loaded MIP start from previous solve with objective 5.21118e+07
Processed MIP start in 8.96 seconds (6.30 work units)

Presolve removed 5286 rows and 19425 columns
Presolve time: 3.49s
Presolved: 1610 rows, 5747 columns, 22997 nonzeros
Presolved model has 4 SOS constraint(s)
Variable types: 0 continuous, 5747 integer (34 binary)

Root simplex log...

Iteration    Objective       Primal Inf.    Dual Inf.      Time
       0    2.5246653e+06   2.413780e+05   0.000000e+00     13s
    6266    4.9288009e+07   0.000000e+00   0.000000e+00     13s

Root relaxation: objective 4.928801e+07, 6266 iterations, 0.14 seconds (0.11 work units)

    Nodes    |    Current Node    |     Objective Bounds      |     Work
 Expl Unexpl |  Obj  Depth IntInf | Incumbent    BestBd   Gap | It/Node Time

     0     0 4.9288e+07    0  409 5.2112e+07 4.9288e+07  5.42%     -   12s
     0     0 4.9353e+07    0 1052 5.2112e+07 4.9353e+07  5.29%     -   12s
     0     0 4.9427e+07    0 1007 5.2112e+07 4.9427e+07  5.15%     -   13s
     0     0 4.9427e+07    0 1015 5.2112e+07 4.9427e+07  5.15%     -   13s
     0     0 4.9427e+07    0 1018 5.2112e+07 4.9427e+07  5.15%     -   13s
H    0     0                    5.193604e+07 4.9677e+07  4.35%     -   13s
     0     0 4.9743e+07    0 1192 5.1936e+07 4.9743e+07  4.22%     -   13s
     0     0 4.9900e+07    0 1138 5.1936e+07 4.9900e+07  3.92%     -   13s
     0     0 4.9922e+07    0 1137 5.1936e+07 4.9922e+07  3.88%     -   13s
     0     0 4.9922e+07    0 1053 5.1936e+07 4.9922e+07  3.88%     -   13s
     0     0 5.0005e+07    0 1140 5.1936e+07 5.0005e+07  3.72%     -   14s
     0     0 5.0066e+07    0 1127 5.1936e+07 5.0066e+07  3.60%     -   14s
     0     2 5.0066e+07    0 1126 5.1936e+07 5.0066e+07  3.60%     -   15s
H   36    36                    5.191584e+07 5.0155e+07  3.39%   791   16s
H   75    65                    5.190177e+07 5.0155e+07  3.36%   558   17s
H   76    65                    5.189768e+07 5.0155e+07  3.36%   552   17s
H   79    65                    5.188746e+07 5.0155e+07  3.34%   538   17s
H   81    65                    5.177984e+07 5.0155e+07  3.14%   529   17s
H  118    87                    5.175221e+07 5.0155e+07  3.09%   428   17s
H  261   168                    5.173906e+07 5.0213e+07  2.95%   264   19s
H  279   168                    5.163994e+07 5.0213e+07  2.76%   253   19s
   625   493 5.0626e+07   10   72 5.1640e+07 5.0350e+07  2.50%   145   20s
H 1021   774                    5.162301e+07 5.0350e+07  2.47%   101   21s
H 1022   737                    5.159756e+07 5.0350e+07  2.42%   101   21s
H 1023   482                    5.130033e+07 5.0350e+07  1.85%   101   21s
H 1033   482                    5.130030e+07 5.0350e+07  1.85%   101   21s
H 1460   686                    5.124168e+07 5.0432e+07  1.58%  84.1   25s
  1471   694 5.1242e+07  140 1173 5.1242e+07 5.0432e+07  1.58%  83.4   31s
H 1471   659                    5.124122e+07 5.0432e+07  1.58%  83.4   32s
H 1556   655                    5.119301e+07 5.0738e+07  0.89%   113   34s
  1601   631 5.1125e+07   28  739 5.1193e+07 5.0738e+07  0.89%   117   35s
* 1762   610              37    5.119300e+07 5.0893e+07  0.59%   129   35s
  2942  1041 5.1193e+07  152   48 5.1193e+07 5.1010e+07  0.36%   101   40s

Cutting planes:
  Gomory: 2
  Implied bound: 448
  Projected implied bound: 13
  MIR: 50
  Flow cover: 29
  Inf proof: 3
  Relax-and-lift: 13

Explored 4411 nodes (348673 simplex iterations) in 42.35 seconds (26.69 work units)
Thread count was 8 (of 8 available processors)

Solution count 10: 5.1193e+07 5.1193e+07 5.12412e+07 ... 5.17391e+07

Optimal solution found (tolerance 1.00e-04)
Warning: max bound violation (2.0184e-06) exceeds tolerance
Best objective 5.119299861400e+07, best bound 5.119299719807e+07, gap 0.0000%

Gurobi 10.0.1 (mac64[arm]) logging started Fri Sep 22 17:20:22 2023

Set parameter LogFile to value "results/scenario_capacity/CAP_h/CAP_h_50/mip_log.txt"
Gurobi Optimizer version 10.0.1 build v10.0.1rc0 (mac64[arm])

CPU model: Apple M1
Thread count: 8 physical cores, 8 logical processors, using up to 8 threads

Optimize a model with 6896 rows, 25172 columns and 98648 nonzeros
Model fingerprint: 0x6dd7727a
Model has 35912 general constraints
Variable types: 4 continuous, 25168 integer (1632 binary)
Coefficient statistics:
  Matrix range     [6e-02, 3e+05]
  Objective range  [9e-02, 2e+05]
  Bounds range     [1e+00, 2e+07]
  RHS range        [4e+03, 2e+04]
  GenCon rhs range [1e+00, 1e+00]
  GenCon coe range [1e+00, 1e+00]

MIP start from previous solve produced solution with objective 5.77122e+07 (1.96s)
MIP start from previous solve produced solution with objective 5.77119e+07 (2.02s)
MIP start from previous solve produced solution with objective 5.76926e+07 (2.62s)
MIP start from previous solve produced solution with objective 5.74415e+07 (2.96s)
MIP start from previous solve produced solution with objective 5.73405e+07 (3.33s)
MIP start from previous solve produced solution with objective 5.67191e+07 (3.62s)
MIP start from previous solve produced solution with objective 5.67105e+07 (3.69s)
MIP start from previous solve produced solution with objective 5.66695e+07 (4.87s)
MIP start from previous solve produced solution with objective 5.66466e+07 (4.91s)
Processing MIP start from previous solve: 328 nodes explored in subMIP, total elapsed time 5s
MIP start from previous solve produced solution with objective 5.66043e+07 (5.00s)
MIP start from previous solve produced solution with objective 5.66043e+07 (5.12s)
Loaded MIP start from previous solve with objective 5.66043e+07
Processed MIP start in 5.27 seconds (6.10 work units)

Presolve removed 5296 rows and 19435 columns
Presolve time: 1.01s
Presolved: 1600 rows, 5737 columns, 22975 nonzeros
Presolved model has 4 SOS constraint(s)
Variable types: 0 continuous, 5737 integer (34 binary)

Root simplex log...

Iteration    Objective       Primal Inf.    Dual Inf.      Time
       0    2.0827362e+06   2.365520e+05   0.000000e+00      6s
    6392    5.4687212e+07   0.000000e+00   0.000000e+00      7s

Root relaxation: objective 5.468721e+07, 6392 iterations, 0.09 seconds (0.11 work units)

    Nodes    |    Current Node    |     Objective Bounds      |     Work
 Expl Unexpl |  Obj  Depth IntInf | Incumbent    BestBd   Gap | It/Node Time

     0     0 5.4687e+07    0  405 5.6604e+07 5.4687e+07  3.39%     -    6s
     0     0 5.4738e+07    0  744 5.6604e+07 5.4738e+07  3.30%     -    6s
     0     0 5.4848e+07    0  792 5.6604e+07 5.4848e+07  3.10%     -    6s
     0     0 5.4861e+07    0  866 5.6604e+07 5.4861e+07  3.08%     -    6s
     0     0 5.4861e+07    0  876 5.6604e+07 5.4861e+07  3.08%     -    6s
     0     0 5.4884e+07    0  875 5.6604e+07 5.4884e+07  3.04%     -    6s
     0     0 5.5143e+07    0 1176 5.6604e+07 5.5143e+07  2.58%     -    7s
     0     0 5.5190e+07    0 1188 5.6604e+07 5.5190e+07  2.50%     -    7s
     0     0 5.5190e+07    0 1201 5.6604e+07 5.5190e+07  2.50%     -    7s
     0     0 5.5194e+07    0 1220 5.6604e+07 5.5194e+07  2.49%     -    7s
     0     0 5.5194e+07    0 1221 5.6604e+07 5.5194e+07  2.49%     -    7s
     0     0 5.5267e+07    0  963 5.6604e+07 5.5267e+07  2.36%     -    7s
     0     0 5.5323e+07    0  984 5.6604e+07 5.5323e+07  2.26%     -    7s
     0     0 5.5401e+07    0  994 5.6604e+07 5.5401e+07  2.13%     -    7s
     0     0 5.5401e+07    0  998 5.6604e+07 5.5401e+07  2.13%     -    7s
     0     0 5.5429e+07    0  861 5.6604e+07 5.5429e+07  2.08%     -    7s
     0     0 5.5477e+07    0  861 5.6604e+07 5.5477e+07  1.99%     -    7s
     0     0 5.5507e+07    0  851 5.6604e+07 5.5507e+07  1.94%     -    7s
H    0     0                    5.660418e+07 5.5507e+07  1.94%     -    7s
     0     2 5.5507e+07    0  849 5.6604e+07 5.5507e+07  1.94%     -    7s
   400    91 5.6134e+07   12  828 5.6604e+07 5.5854e+07  1.32%   251   10s
H  531    52                    5.660417e+07 5.6212e+07  0.69%   264   10s
H  534    52                    5.660417e+07 5.6212e+07  0.69%   265   10s
H  537    52                    5.660416e+07 5.6212e+07  0.69%   266   10s
H 1202   500                    5.658795e+07 5.6338e+07  0.44%   169   12s
H 1225   500                    5.658794e+07 5.6338e+07  0.44%   166   12s
H 1653   581                    5.658794e+07 5.6547e+07  0.07%   139   12s

Cutting planes:
  Gomory: 4
  Implied bound: 797
  MIR: 74
  Inf proof: 3
  Relax-and-lift: 29

Explored 1915 nodes (247510 simplex iterations) in 12.60 seconds (14.51 work units)
Thread count was 8 (of 8 available processors)

Solution count 10: 5.65879e+07 5.65879e+07 5.65879e+07 ... 5.66466e+07

Optimal solution found (tolerance 1.00e-04)
Best objective 5.658794310700e+07, best bound 5.658794237081e+07, gap 0.0000%

Gurobi 10.0.1 (mac64[arm]) logging started Fri Sep 22 17:49:51 2023

Set parameter LogFile to value "results/scenario_capacity/CAP_h/CAP_h_50/mip_log.txt"
Gurobi Optimizer version 10.0.1 build v10.0.1rc0 (mac64[arm])

CPU model: Apple M1
Thread count: 8 physical cores, 8 logical processors, using up to 8 threads

Optimize a model with 6776 rows, 25172 columns and 98288 nonzeros
Model fingerprint: 0x56067f45
Model has 35912 general constraints
Variable types: 4 continuous, 25168 integer (1632 binary)
Coefficient statistics:
  Matrix range     [6e-02, 3e+05]
  Objective range  [9e-02, 2e+05]
  Bounds range     [1e+00, 2e+07]
  RHS range        [4e+03, 2e+04]
  GenCon rhs range [1e+00, 1e+00]
  GenCon coe range [1e+00, 1e+00]

MIP start from previous solve did not produce a new incumbent solution
Processed MIP start in 4.71 seconds (6.31 work units)

Presolve removed 5149 rows and 19381 columns
Presolve time: 1.08s
Presolved: 1627 rows, 5791 columns, 23138 nonzeros
Presolved model has 4 SOS constraint(s)
Variable types: 0 continuous, 5791 integer (34 binary)

Root simplex log...

Iteration    Objective       Primal Inf.    Dual Inf.      Time
       0    2.5307965e+06   2.591860e+05   0.000000e+00      6s
    6121    5.1474453e+07   0.000000e+00   0.000000e+00      6s

Root relaxation: objective 5.147445e+07, 6121 iterations, 0.07 seconds (0.09 work units)

    Nodes    |    Current Node    |     Objective Bounds      |     Work
 Expl Unexpl |  Obj  Depth IntInf | Incumbent    BestBd   Gap | It/Node Time

     0     0 5.1474e+07    0  416          - 5.1474e+07      -     -    5s
     0     0 5.1526e+07    0  922          - 5.1526e+07      -     -    6s
H    0     0                    5.485462e+07 5.1563e+07  6.00%     -    6s
     0     0 5.2152e+07    0  798 5.4855e+07 5.2152e+07  4.93%     -    6s
     0     0 5.2153e+07    0  922 5.4855e+07 5.2153e+07  4.93%     -    6s
     0     0 5.2153e+07    0  918 5.4855e+07 5.2153e+07  4.93%     -    6s
     0     0 5.2174e+07    0  918 5.4855e+07 5.2174e+07  4.89%     -    6s
H    0     0                    5.448995e+07 5.2174e+07  4.25%     -    6s
     0     0 5.2382e+07    0 1189 5.4490e+07 5.2382e+07  3.87%     -    6s
     0     0 5.2496e+07    0 1233 5.4490e+07 5.2496e+07  3.66%     -    6s
     0     0 5.2593e+07    0 1205 5.4490e+07 5.2593e+07  3.48%     -    6s
     0     0 5.2604e+07    0 1212 5.4490e+07 5.2604e+07  3.46%     -    6s
     0     0 5.2619e+07    0 1229 5.4490e+07 5.2619e+07  3.43%     -    6s
     0     0 5.2758e+07    0  976 5.4490e+07 5.2758e+07  3.18%     -    6s
     0     0 5.2800e+07    0  959 5.4490e+07 5.2800e+07  3.10%     -    6s
H    0     0                    5.413874e+07 5.2800e+07  2.47%     -    7s
     0     2 5.2800e+07    0  958 5.4139e+07 5.2800e+07  2.47%     -    7s
H   83    72                    5.410627e+07 5.2800e+07  2.41%   537    8s
H  229    96                    5.346158e+07 5.2800e+07  1.24%   341    8s
*  281    79              10    5.342954e+07 5.2800e+07  1.18%   330    8s
H  295    84                    5.338680e+07 5.2800e+07  1.10%   345    9s
H  415   134                    5.337072e+07 5.2800e+07  1.07%   311    9s
   520    82 5.3329e+07   10  329 5.3371e+07 5.3210e+07  0.30%   296   10s
H  530    82                    5.337056e+07 5.3210e+07  0.30%   299   10s
* 1292   569              92    5.337043e+07 5.3317e+07  0.10%   150   10s

Cutting planes:
  Gomory: 5
  Implied bound: 771
  MIR: 69
  Flow path: 1
  Inf proof: 8
  Relax-and-lift: 35

Explored 1461 nodes (211316 simplex iterations) in 10.98 seconds (15.84 work units)
Thread count was 8 (of 8 available processors)

Solution count 10: 5.33704e+07 5.33706e+07 5.33707e+07 ... 5.48546e+07

Optimal solution found (tolerance 1.00e-04)
Best objective 5.337043156900e+07, best bound 5.337042268830e+07, gap 0.0000%

Gurobi 10.0.1 (mac64[arm]) logging started Fri Sep 22 19:32:46 2023

Set parameter LogFile to value "results/scenario_capacity/CAP_h/CAP_h_50/mip_log.txt"
Gurobi Optimizer version 10.0.1 build v10.0.1rc0 (mac64[arm])

CPU model: Apple M1
Thread count: 8 physical cores, 8 logical processors, using up to 8 threads

Optimize a model with 6776 rows, 25172 columns and 98288 nonzeros
Model fingerprint: 0xb9c2d8bb
Model has 35912 general constraints
Variable types: 4 continuous, 25168 integer (1632 binary)
Coefficient statistics:
  Matrix range     [6e-02, 3e+05]
  Objective range  [9e-02, 2e+05]
  Bounds range     [1e+00, 2e+07]
  RHS range        [4e+03, 2e+04]
  GenCon rhs range [1e+00, 1e+00]
  GenCon coe range [1e+00, 1e+00]
Presolve removed 5149 rows and 19381 columns
Presolve time: 0.98s
Presolved: 1627 rows, 5791 columns, 23173 nonzeros
Presolved model has 4 SOS constraint(s)
Variable types: 0 continuous, 5791 integer (34 binary)

Root relaxation: objective 5.569611e+07, 6309 iterations, 0.10 seconds (0.10 work units)

    Nodes    |    Current Node    |     Objective Bounds      |     Work
 Expl Unexpl |  Obj  Depth IntInf | Incumbent    BestBd   Gap | It/Node Time

     0     0 5.5696e+07    0  657          - 5.5696e+07      -     -    1s
     0     0 5.5902e+07    0  906          - 5.5902e+07      -     -    1s
     0     0 5.6392e+07    0 1021          - 5.6392e+07      -     -    1s
     0     0 5.6392e+07    0 1019          - 5.6392e+07      -     -    1s
H    0     0                    6.318380e+07 5.6392e+07  10.7%     -    1s
H    0     0                    6.316436e+07 5.6392e+07  10.7%     -    1s
     0     0 5.6687e+07    0 1116 6.3164e+07 5.6687e+07  10.3%     -    1s
H    0     0                    6.056493e+07 5.6687e+07  6.40%     -    1s
     0     0 5.6779e+07    0 1193 6.0565e+07 5.6779e+07  6.25%     -    1s
     0     0 5.6812e+07    0 1078 6.0565e+07 5.6812e+07  6.20%     -    1s
     0     0 5.6819e+07    0 1199 6.0565e+07 5.6819e+07  6.18%     -    1s
H    0     0                    5.998592e+07 5.6843e+07  5.24%     -    2s
     0     0 5.6983e+07    0 1127 5.9986e+07 5.6983e+07  5.01%     -    2s
H    0     0                    5.997465e+07 5.6983e+07  4.99%     -    2s
     0     0 5.6993e+07    0 1120 5.9975e+07 5.6993e+07  4.97%     -    2s
H    0     0                    5.931741e+07 5.6993e+07  3.92%     -    2s
H    0     0                    5.931740e+07 5.6993e+07  3.92%     -    2s
     0     2 5.6993e+07    0 1118 5.9317e+07 5.6993e+07  3.92%     -    2s
H   37    40                    5.931740e+07 5.6993e+07  3.92%  1031    4s
H   72    75                    5.900897e+07 5.6993e+07  3.42%   755    4s
H   82    74                    5.900818e+07 5.6993e+07  3.42%   677    4s
H   83    74                    5.804828e+07 5.6993e+07  1.82%   672    4s
H  117    63                    5.801784e+07 5.6993e+07  1.77%   509    4s
   212    73     cutoff   12      5.8018e+07 5.7084e+07  1.61%   366    5s
H  240    72                    5.801782e+07 5.7084e+07  1.61%   357    5s

Cutting planes:
  Gomory: 2
  Cover: 3
  Implied bound: 957
  MIR: 132
  Flow path: 1
  Inf proof: 4
  Relax-and-lift: 54

Explored 1103 nodes (173871 simplex iterations) in 6.74 seconds (9.64 work units)
Thread count was 8 (of 8 available processors)

Solution count 10: 5.80178e+07 5.80178e+07 5.80483e+07 ... 5.99859e+07

Optimal solution found (tolerance 1.00e-04)
Best objective 5.801782301800e+07, best bound 5.801782204919e+07, gap 0.0000%
Discarded solution information

Gurobi 10.0.1 (mac64[arm]) logging started Fri Sep 22 20:49:30 2023

Set parameter LogFile to value "results/scenario_capacity/CAP_h/CAP_h_50/mip_log.txt"
Gurobi Optimizer version 10.0.1 build v10.0.1rc0 (mac64[arm])

CPU model: Apple M1
Thread count: 8 physical cores, 8 logical processors, using up to 8 threads

Optimize a model with 8470 rows, 31465 columns and 122860 nonzeros
Model fingerprint: 0xf86de986
Model has 44890 general constraints
Variable types: 5 continuous, 31460 integer (2040 binary)
Coefficient statistics:
  Matrix range     [6e-02, 3e+05]
  Objective range  [9e-02, 2e+05]
  Bounds range     [1e+00, 2e+07]
  RHS range        [4e+03, 2e+04]
  GenCon rhs range [1e+00, 1e+00]
  GenCon coe range [1e+00, 1e+00]
Presolve removed 6843 rows and 25674 columns
Presolve time: 1.17s
Presolved: 1627 rows, 5791 columns, 23173 nonzeros
Presolved model has 4 SOS constraint(s)
Variable types: 0 continuous, 5791 integer (34 binary)

Root relaxation: objective 5.569611e+07, 6309 iterations, 0.07 seconds (0.10 work units)

    Nodes    |    Current Node    |     Objective Bounds      |     Work
 Expl Unexpl |  Obj  Depth IntInf | Incumbent    BestBd   Gap | It/Node Time

     0     0 5.5696e+07    0  657          - 5.5696e+07      -     -    1s
     0     0 5.5902e+07    0  906          - 5.5902e+07      -     -    1s
     0     0 5.6392e+07    0 1022          - 5.6392e+07      -     -    1s
     0     0 5.6392e+07    0 1019          - 5.6392e+07      -     -    1s
H    0     0                    6.355465e+07 5.6392e+07  11.3%     -    1s
H    0     0                    6.353476e+07 5.6392e+07  11.2%     -    1s
     0     0 5.6459e+07    0 1115 6.3535e+07 5.6459e+07  11.1%     -    1s
     0     0 5.6660e+07    0 1185 6.3535e+07 5.6660e+07  10.8%     -    1s
     0     0 5.6682e+07    0 1081 6.3535e+07 5.6682e+07  10.8%     -    1s
     0     0 5.6687e+07    0 1201 6.3535e+07 5.6687e+07  10.8%     -    1s
H    0     0                    6.056401e+07 5.6698e+07  6.38%     -    1s
     0     0 5.6832e+07    0 1254 6.0564e+07 5.6832e+07  6.16%     -    1s
     0     0 5.6898e+07    0 1248 6.0564e+07 5.6898e+07  6.05%     -    2s
H    0     0                    6.019959e+07 5.6898e+07  5.48%     -    2s
H    0     0                    5.993850e+07 5.6898e+07  5.07%     -    2s
     0     2 5.6898e+07    0 1247 5.9939e+07 5.6898e+07  5.07%     -    2s
H   31    32                    5.986070e+07 5.6898e+07  4.95%  1173    3s
H   33    32                    5.848488e+07 5.6898e+07  2.71%  1137    3s
H   69    54                    5.840545e+07 5.6898e+07  2.58%   763    4s
H   74    54                    5.813776e+07 5.6898e+07  2.13%   733    4s
H  108    33                    5.810735e+07 5.6898e+07  2.08%   651    5s
H  110    33                    5.801805e+07 5.6898e+07  1.93%   651    5s
H  280    91                    5.801782e+07 5.6898e+07  1.93%   371    6s
*  607   247              90    5.801782e+07 5.7333e+07  1.18%   214    6s

Cutting planes:
  Gomory: 2
  Cover: 1
  Implied bound: 851
  MIR: 113
  Flow path: 1
  Inf proof: 3
  Relax-and-lift: 48

Explored 663 nodes (147194 simplex iterations) in 6.66 seconds (8.62 work units)
Thread count was 8 (of 8 available processors)

Solution count 10: 5.80178e+07 5.80178e+07 5.8018e+07 ... 6.01996e+07

Optimal solution found (tolerance 1.00e-04)
Best objective 5.801782301700e+07, best bound 5.801782201286e+07, gap 0.0000%
Discarded solution information
